************************************************************************
file with basedata            : mm13_.bas
initial value random generator: 1378115193
************************************************************************
projects                      :  1
jobs (incl. supersource/sink ):  12
horizon                       :  79
RESOURCES
  - renewable                 :  2   R
  - nonrenewable              :  2   N
  - doubly constrained        :  0   D
************************************************************************
PROJECT INFORMATION:
pronr.  #jobs rel.date duedate tardcost  MPM-Time
    1     10      0       10        4       10
************************************************************************
PRECEDENCE RELATIONS:
jobnr.    #modes  #successors   successors
   0        1          3           1   2   3
   1        3          2           4   5
   2        3          1           8
   3        3          3           6   7   9
   4        3          1           9
   5        3          2           8   9
   6        3          2           8  10
   7        3          1          10
   8        3          1          11
   9        3          1          11
  10        3          1          11
  11        1          0        
************************************************************************
REQUESTS/DURATIONS:
jobnr. mode duration  R 1  R 2  R 3  R 4  E(W 1)  E(W 2)  E(W 3)
------------------------------------------------------------------------
  0      1     0       0    0    0    0     0       0       0
  1      1     4       0    2    5    8     8      20      32
  2      1     4       0    7    7    6    28      28      24
  3      1     2       7    0   10    4    14      20       8
  4      1     1       0    4    8    7     4       8       7
  5      1     1       7    0    5    9     7       5       9
  6      1     4       0    6    8    7    24      32      28
  7      1     1       8    0    7    7     8       7       7
  8      1     1       6    0    8    7     6       8       7
  9      1     4       0    4    8    4    16      32      16
 10      1     4       6    0    5    9    24      20      36
 11      1     0       0    0    0    0     0       0       0
************************************************************************
RESOURCEAVAILABILITIES:
  R 1  R 2  R 3
   27   45   46
************************************************************************
RESOURCE LIMITS:
jobnr.  l(R 1)  u(R 1)  l(R 2)  u(R 2)  l(R 3)  u(R 3)
------------------------------------------------------------------------
  0        0       0       0       0       0       0
  1        1       2       3       5       4       8
  2        4       7       4       7       3       6
  3        4       7       5      10       2       4
  4        2       4       4       8       4       7
  5        4       7       3       5       5       9
  6        3       6       4       8       4       7
  7        4       8       4       7       4       7
  8        3       6       4       8       4       7
  9        2       4       4       8       2       4
 10        3       6       3       5       5       9
 11        0       0       0       0       0       0
************************************************************************
SCENARIOS:
------------------------------------------------------------------------
RESOURCE k = 1
s = 1: (0, 6, 17, 13, 7, 5, 23, 7, 5, 12, 33, 0)
s = 2: (0, 11, 22, 21, 3, 13, 30, 6, 5, 20, 26, 0)
s = 3: (0, 9, 36, 22, 6, 8, 17, 10, 7, 19, 21, 0)
s = 4: (0, 5, 23, 17, 4, 8, 35, 11, 6, 18, 16, 0)
s = 5: (0, 5, 16, 11, 5, 6, 27, 7, 7, 12, 37, 0)
s = 6: (0, 12, 33, 12, 5, 5, 23, 5, 8, 20, 40, 0)
s = 7: (0, 8, 35, 16, 4, 7, 34, 8, 9, 19, 15, 0)
s = 8: (0, 7, 32, 14, 3, 5, 23, 11, 6, 17, 24, 0)
s = 9: (0, 6, 29, 15, 4, 11, 30, 6, 6, 17, 23, 0)
s = 10: (0, 8, 19, 9, 3, 10, 35, 16, 5, 14, 18, 0)
s = 11: (0, 7, 22, 19, 6, 5, 17, 9, 7, 23, 24, 0)
s = 12: (0, 7, 27, 11, 3, 8, 19, 9, 4, 15, 22, 0)
s = 13: (0, 6, 22, 18, 4, 7, 15, 7, 5, 10, 21, 0)
s = 14: (0, 7, 30, 10, 6, 8, 18, 10, 6, 18, 31, 0)
s = 15: (0, 7, 23, 18, 5, 9, 24, 8, 9, 13, 39, 0)
s = 16: (0, 8, 19, 11, 4, 11, 31, 9, 7, 17, 28, 0)
s = 17: (0, 10, 20, 18, 5, 7, 13, 5, 5, 18, 28, 0)
s = 18: (0, 11, 34, 11, 3, 7, 16, 7, 8, 12, 22, 0)
s = 19: (0, 6, 23, 15, 4, 8, 22, 7, 5, 14, 23, 0)
s = 20: (0, 8, 16, 12, 4, 6, 21, 8, 6, 23, 37, 0)
s = 21: (0, 6, 29, 10, 4, 12, 31, 10, 6, 19, 35, 0)
s = 22: (0, 8, 17, 9, 3, 5, 20, 12, 6, 15, 25, 0)
s = 23: (0, 9, 19, 15, 4, 4, 35, 9, 8, 14, 29, 0)
s = 24: (0, 8, 23, 9, 7, 9, 27, 5, 6, 12, 25, 0)
s = 25: (0, 6, 24, 17, 7, 6, 15, 10, 6, 18, 29, 0)
s = 26: (0, 9, 23, 15, 5, 9, 33, 11, 5, 12, 32, 0)
s = 27: (0, 8, 48, 10, 5, 8, 33, 7, 4, 13, 19, 0)
s = 28: (0, 8, 25, 12, 3, 9, 24, 7, 7, 13, 37, 0)
s = 29: (0, 12, 41, 21, 3, 6, 30, 7, 4, 12, 23, 0)
s = 30: (0, 12, 41, 12, 3, 7, 16, 6, 4, 16, 39, 0)
s = 31: (0, 6, 46, 14, 4, 6, 20, 9, 9, 11, 18, 0)
s = 32: (0, 9, 36, 15, 5, 6, 24, 8, 4, 19, 25, 0)
s = 33: (0, 6, 31, 9, 3, 9, 26, 7, 7, 16, 23, 0)
s = 34: (0, 7, 21, 13, 4, 6, 22, 11, 8, 18, 24, 0)
s = 35: (0, 9, 17, 16, 5, 6, 19, 8, 8, 13, 22, 0)
s = 36: (0, 7, 33, 15, 3, 7, 33, 7, 5, 12, 27, 0)
s = 37: (0, 13, 40, 11, 4, 8, 16, 10, 4, 24, 25, 0)
s = 38: (0, 7, 43, 12, 4, 6, 23, 6, 9, 10, 25, 0)
s = 39: (0, 9, 35, 13, 6, 12, 21, 5, 7, 12, 15, 0)
s = 40: (0, 8, 18, 20, 5, 6, 23, 11, 7, 12, 13, 0)
s = 41: (0, 8, 19, 13, 3, 9, 23, 6, 6, 11, 20, 0)
s = 42: (0, 8, 19, 16, 4, 8, 22, 6, 8, 13, 27, 0)
s = 43: (0, 12, 34, 10, 3, 6, 37, 6, 4, 17, 27, 0)
s = 44: (0, 10, 33, 22, 4, 5, 19, 5, 6, 20, 29, 0)
s = 45: (0, 13, 19, 13, 5, 7, 23, 14, 8, 22, 29, 0)
s = 46: (0, 12, 32, 18, 5, 8, 27, 9, 5, 25, 42, 0)
s = 47: (0, 8, 30, 14, 3, 6, 17, 8, 8, 21, 22, 0)
s = 48: (0, 5, 26, 13, 6, 6, 25, 12, 7, 19, 20, 0)
s = 49: (0, 7, 38, 15, 4, 9, 34, 12, 11, 11, 17, 0)
s = 50: (0, 6, 33, 12, 3, 5, 21, 7, 8, 11, 33, 0)
s = 51: (0, 8, 25, 18, 5, 5, 24, 11, 8, 23, 18, 0)
s = 52: (0, 7, 22, 9, 3, 9, 15, 9, 7, 16, 27, 0)
s = 53: (0, 11, 26, 10, 4, 7, 25, 11, 6, 13, 16, 0)
s = 54: (0, 6, 25, 14, 4, 6, 33, 9, 7, 19, 19, 0)
s = 55: (0, 8, 29, 21, 4, 12, 31, 8, 5, 13, 36, 0)
s = 56: (0, 6, 28, 12, 4, 8, 35, 5, 6, 21, 17, 0)
s = 57: (0, 7, 29, 19, 3, 10, 19, 13, 6, 28, 21, 0)
s = 58: (0, 11, 25, 10, 4, 7, 17, 11, 4, 17, 36, 0)
s = 59: (0, 8, 31, 9, 4, 6, 22, 11, 7, 12, 21, 0)
s = 60: (0, 7, 17, 14, 3, 6, 19, 7, 8, 17, 29, 0)
s = 61: (0, 10, 32, 14, 3, 6, 16, 9, 6, 16, 27, 0)
s = 62: (0, 8, 17, 11, 3, 5, 30, 8, 11, 12, 32, 0)
s = 63: (0, 6, 25, 16, 6, 11, 26, 12, 5, 18, 29, 0)
s = 64: (0, 7, 33, 13, 3, 7, 29, 8, 9, 12, 23, 0)
s = 65: (0, 7, 19, 15, 4, 12, 23, 6, 9, 18, 35, 0)
s = 66: (0, 8, 34, 13, 3, 5, 18, 9, 6, 19, 21, 0)
s = 67: (0, 7, 22, 9, 4, 7, 32, 9, 7, 22, 25, 0)
s = 68: (0, 7, 21, 12, 3, 6, 18, 6, 7, 17, 23, 0)
s = 69: (0, 7, 18, 21, 3, 5, 35, 10, 6, 19, 21, 0)
s = 70: (0, 9, 27, 18, 4, 6, 27, 11, 10, 11, 19, 0)
s = 71: (0, 12, 24, 16, 5, 6, 29, 9, 4, 15, 34, 0)
s = 72: (0, 9, 34, 9, 3, 6, 14, 9, 5, 17, 27, 0)
s = 73: (0, 10, 45, 16, 7, 8, 31, 9, 5, 21, 20, 0)
s = 74: (0, 10, 36, 17, 3, 6, 26, 8, 5, 17, 15, 0)
s = 75: (0, 11, 36, 12, 5, 5, 20, 6, 5, 13, 14, 0)
s = 76: (0, 7, 29, 10, 7, 8, 19, 9, 8, 11, 14, 0)
s = 77: (0, 7, 35, 19, 4, 6, 16, 7, 7, 18, 28, 0)
s = 78: (0, 8, 38, 16, 4, 6, 32, 5, 11, 13, 26, 0)
s = 79: (0, 9, 18, 15, 5, 6, 15, 7, 4, 18, 36, 0)
s = 80: (0, 10, 26, 14, 5, 7, 26, 12, 6, 9, 28, 0)
s = 81: (0, 10, 44, 14, 5, 11, 25, 10, 8, 19, 43, 0)
s = 82: (0, 9, 33, 9, 3, 6, 20, 7, 7, 11, 21, 0)
s = 83: (0, 13, 30, 19, 5, 5, 33, 10, 8, 19, 24, 0)
s = 84: (0, 8, 26, 17, 7, 9, 25, 7, 4, 17, 25, 0)
s = 85: (0, 14, 19, 14, 7, 8, 15, 14, 7, 27, 30, 0)
s = 86: (0, 14, 37, 20, 4, 11, 17, 5, 7, 13, 21, 0)
s = 87: (0, 11, 41, 14, 4, 5, 45, 13, 6, 22, 22, 0)
s = 88: (0, 7, 28, 8, 4, 8, 22, 7, 6, 13, 19, 0)
s = 89: (0, 8, 34, 16, 5, 8, 26, 8, 6, 13, 15, 0)
s = 90: (0, 12, 41, 14, 5, 5, 24, 10, 6, 12, 26, 0)
s = 91: (0, 5, 32, 18, 4, 7, 34, 8, 5, 19, 33, 0)
s = 92: (0, 9, 18, 12, 5, 12, 19, 8, 8, 16, 29, 0)
s = 93: (0, 7, 16, 12, 4, 9, 16, 5, 6, 22, 36, 0)
s = 94: (0, 7, 18, 8, 4, 8, 18, 8, 5, 18, 22, 0)
s = 95: (0, 11, 16, 17, 4, 10, 23, 6, 5, 29, 16, 0)
s = 96: (0, 11, 22, 21, 5, 10, 26, 14, 9, 20, 21, 0)
s = 97: (0, 5, 38, 15, 3, 11, 43, 10, 6, 19, 20, 0)
s = 98: (0, 5, 39, 11, 4, 12, 16, 5, 8, 16, 34, 0)
s = 99: (0, 8, 18, 12, 5, 8, 21, 6, 5, 12, 29, 0)
s = 100: (0, 7, 28, 10, 3, 11, 23, 7, 8, 14, 26, 0)
s = 101: (0, 6, 29, 15, 8, 7, 30, 11, 6, 19, 21, 0)
s = 102: (0, 6, 26, 12, 6, 10, 18, 11, 6, 15, 19, 0)
s = 103: (0, 6, 34, 17, 4, 6, 25, 6, 7, 28, 24, 0)
s = 104: (0, 7, 42, 11, 5, 9, 29, 9, 4, 17, 44, 0)
s = 105: (0, 6, 43, 19, 5, 5, 22, 6, 7, 16, 25, 0)
s = 106: (0, 7, 40, 9, 4, 4, 43, 8, 8, 15, 22, 0)
s = 107: (0, 13, 19, 11, 4, 5, 21, 8, 8, 10, 21, 0)
s = 108: (0, 13, 21, 12, 5, 8, 17, 7, 7, 16, 27, 0)
s = 109: (0, 9, 17, 14, 6, 9, 18, 5, 7, 24, 25, 0)
s = 110: (0, 10, 27, 15, 3, 8, 14, 7, 7, 14, 26, 0)
s = 111: (0, 10, 32, 14, 3, 5, 26, 7, 4, 16, 16, 0)
s = 112: (0, 11, 20, 11, 5, 9, 21, 8, 9, 21, 25, 0)
s = 113: (0, 13, 22, 12, 4, 5, 20, 10, 6, 11, 21, 0)
s = 114: (0, 6, 21, 12, 4, 8, 17, 9, 5, 22, 30, 0)
s = 115: (0, 6, 37, 15, 4, 6, 18, 12, 10, 11, 21, 0)
s = 116: (0, 5, 25, 12, 5, 7, 20, 8, 7, 13, 33, 0)
s = 117: (0, 12, 22, 16, 3, 7, 17, 8, 4, 16, 23, 0)
s = 118: (0, 10, 28, 13, 5, 9, 32, 8, 10, 19, 31, 0)
s = 119: (0, 10, 36, 16, 5, 10, 17, 6, 8, 11, 23, 0)
s = 120: (0, 6, 32, 18, 3, 7, 30, 10, 5, 14, 22, 0)
s = 121: (0, 9, 34, 16, 5, 7, 42, 8, 7, 11, 34, 0)
s = 122: (0, 8, 23, 20, 3, 6, 32, 8, 6, 13, 36, 0)
s = 123: (0, 11, 23, 15, 5, 10, 21, 9, 8, 13, 22, 0)
s = 124: (0, 6, 34, 15, 5, 9, 25, 10, 5, 12, 31, 0)
s = 125: (0, 13, 19, 16, 4, 6, 20, 8, 6, 15, 21, 0)
s = 126: (0, 7, 40, 17, 4, 10, 17, 6, 6, 23, 20, 0)
s = 127: (0, 7, 25, 13, 3, 9, 25, 11, 7, 12, 19, 0)
s = 128: (0, 8, 20, 22, 4, 5, 19, 7, 8, 22, 13, 0)
s = 129: (0, 6, 18, 17, 4, 13, 26, 8, 7, 23, 26, 0)
s = 130: (0, 9, 40, 13, 4, 9, 25, 14, 7, 13, 21, 0)
s = 131: (0, 6, 28, 10, 3, 7, 22, 10, 5, 24, 26, 0)
s = 132: (0, 11, 42, 11, 5, 6, 25, 7, 5, 10, 16, 0)
s = 133: (0, 6, 47, 14, 6, 7, 22, 9, 8, 14, 34, 0)
s = 134: (0, 10, 15, 11, 4, 8, 19, 9, 7, 10, 19, 0)
s = 135: (0, 9, 32, 15, 6, 5, 25, 10, 6, 13, 14, 0)
s = 136: (0, 11, 19, 17, 4, 6, 24, 6, 5, 12, 19, 0)
s = 137: (0, 6, 20, 15, 4, 7, 34, 9, 6, 13, 33, 0)
s = 138: (0, 5, 27, 11, 6, 8, 34, 6, 6, 13, 27, 0)
s = 139: (0, 5, 18, 18, 5, 9, 25, 7, 4, 21, 25, 0)
s = 140: (0, 7, 47, 16, 5, 7, 25, 6, 5, 16, 24, 0)
s = 141: (0, 15, 24, 19, 4, 6, 16, 8, 5, 22, 42, 0)
s = 142: (0, 13, 16, 16, 5, 7, 19, 8, 5, 20, 25, 0)
s = 143: (0, 6, 23, 15, 4, 8, 39, 9, 6, 11, 33, 0)
s = 144: (0, 10, 40, 14, 9, 8, 17, 10, 5, 18, 25, 0)
s = 145: (0, 8, 22, 15, 3, 9, 20, 12, 7, 11, 19, 0)
s = 146: (0, 7, 27, 11, 4, 7, 29, 6, 4, 12, 19, 0)
s = 147: (0, 9, 27, 10, 5, 10, 24, 8, 4, 16, 29, 0)
s = 148: (0, 9, 22, 13, 5, 4, 22, 9, 7, 18, 26, 0)
s = 149: (0, 6, 31, 11, 4, 9, 23, 10, 8, 13, 30, 0)
s = 150: (0, 11, 39, 19, 4, 5, 20, 10, 6, 11, 21, 0)
s = 151: (0, 11, 32, 8, 3, 6, 35, 11, 5, 17, 20, 0)
s = 152: (0, 7, 30, 14, 5, 7, 21, 8, 5, 10, 16, 0)
s = 153: (0, 6, 28, 11, 7, 6, 22, 7, 4, 21, 24, 0)
s = 154: (0, 6, 22, 16, 5, 7, 39, 8, 4, 26, 29, 0)
s = 155: (0, 8, 28, 10, 4, 6, 23, 6, 9, 14, 21, 0)
s = 156: (0, 7, 23, 17, 4, 9, 25, 5, 4, 20, 22, 0)
s = 157: (0, 8, 21, 17, 4, 9, 17, 10, 8, 12, 16, 0)
s = 158: (0, 9, 33, 22, 3, 6, 23, 8, 6, 18, 19, 0)
s = 159: (0, 8, 24, 9, 4, 6, 19, 6, 10, 21, 29, 0)
s = 160: (0, 12, 36, 12, 7, 9, 21, 11, 5, 24, 21, 0)
s = 161: (0, 13, 33, 10, 5, 7, 22, 8, 11, 11, 33, 0)
s = 162: (0, 10, 25, 10, 4, 8, 19, 8, 6, 12, 18, 0)
s = 163: (0, 8, 19, 19, 5, 6, 21, 8, 6, 17, 18, 0)
s = 164: (0, 12, 19, 18, 5, 8, 19, 7, 5, 18, 23, 0)
s = 165: (0, 12, 33, 16, 4, 6, 22, 8, 6, 17, 21, 0)
s = 166: (0, 9, 25, 12, 4, 10, 31, 6, 6, 17, 26, 0)
s = 167: (0, 9, 41, 18, 3, 4, 27, 9, 12, 11, 24, 0)
s = 168: (0, 5, 37, 13, 4, 8, 24, 7, 5, 18, 36, 0)
s = 169: (0, 6, 30, 16, 5, 6, 19, 6, 5, 20, 18, 0)
s = 170: (0, 9, 23, 11, 3, 5, 27, 8, 7, 16, 18, 0)
s = 171: (0, 9, 34, 10, 4, 9, 22, 5, 5, 17, 17, 0)
s = 172: (0, 5, 20, 13, 5, 9, 26, 6, 7, 21, 26, 0)
s = 173: (0, 12, 40, 12, 4, 8, 29, 7, 5, 14, 20, 0)
s = 174: (0, 5, 59, 13, 7, 12, 17, 8, 6, 9, 21, 0)
s = 175: (0, 10, 25, 9, 4, 12, 34, 5, 8, 18, 23, 0)
s = 176: (0, 11, 21, 16, 5, 5, 33, 8, 8, 18, 25, 0)
s = 177: (0, 9, 26, 14, 4, 6, 34, 7, 6, 10, 31, 0)
s = 178: (0, 6, 18, 18, 5, 9, 27, 12, 4, 10, 31, 0)
s = 179: (0, 9, 19, 11, 3, 6, 26, 12, 7, 12, 13, 0)
s = 180: (0, 7, 28, 9, 4, 13, 30, 6, 5, 15, 20, 0)
s = 181: (0, 10, 41, 10, 3, 6, 18, 8, 5, 21, 37, 0)
s = 182: (0, 10, 15, 14, 3, 6, 15, 6, 5, 15, 29, 0)
s = 183: (0, 5, 19, 14, 3, 11, 19, 8, 7, 23, 22, 0)
s = 184: (0, 12, 25, 18, 3, 6, 33, 6, 10, 10, 19, 0)
s = 185: (0, 11, 30, 18, 4, 10, 26, 7, 4, 13, 16, 0)
s = 186: (0, 8, 23, 18, 6, 6, 22, 7, 8, 17, 24, 0)
s = 187: (0, 9, 33, 18, 4, 6, 33, 9, 5, 17, 39, 0)
s = 188: (0, 5, 19, 12, 3, 9, 18, 9, 6, 20, 17, 0)
s = 189: (0, 5, 44, 15, 5, 12, 26, 6, 4, 14, 19, 0)
s = 190: (0, 6, 28, 14, 5, 8, 29, 11, 6, 16, 36, 0)
s = 191: (0, 7, 36, 14, 3, 12, 42, 5, 4, 11, 32, 0)
s = 192: (0, 6, 17, 9, 4, 7, 14, 12, 8, 14, 37, 0)
s = 193: (0, 13, 39, 12, 5, 6, 18, 10, 5, 29, 22, 0)
s = 194: (0, 10, 29, 13, 4, 9, 29, 7, 6, 19, 36, 0)
s = 195: (0, 6, 32, 13, 6, 8, 19, 9, 7, 20, 14, 0)
s = 196: (0, 8, 22, 13, 5, 7, 19, 8, 4, 21, 22, 0)
s = 197: (0, 6, 23, 9, 5, 7, 18, 8, 6, 21, 28, 0)
s = 198: (0, 9, 24, 9, 4, 9, 20, 7, 9, 13, 22, 0)
s = 199: (0, 8, 21, 14, 4, 10, 15, 10, 9, 10, 33, 0)
s = 200: (0, 10, 24, 13, 3, 9, 18, 8, 8, 17, 22, 0)
------------------------------------------------------------------------
RESOURCE k = 2
s = 1: (0, 13, 17, 19, 13, 4, 31, 6, 7, 23, 28, 0)
s = 2: (0, 26, 22, 30, 6, 9, 40, 6, 6, 39, 21, 0)
s = 3: (0, 21, 36, 32, 12, 6, 22, 9, 9, 38, 18, 0)
s = 4: (0, 13, 23, 24, 8, 6, 46, 10, 8, 36, 13, 0)
s = 5: (0, 13, 16, 16, 10, 4, 36, 6, 9, 24, 31, 0)
s = 6: (0, 30, 33, 17, 9, 4, 30, 5, 11, 39, 33, 0)
s = 7: (0, 20, 35, 23, 7, 5, 45, 7, 12, 38, 13, 0)
s = 8: (0, 16, 32, 20, 6, 3, 31, 10, 8, 33, 20, 0)
s = 9: (0, 13, 29, 22, 8, 8, 40, 5, 8, 34, 19, 0)
s = 10: (0, 20, 19, 13, 6, 7, 46, 14, 6, 27, 15, 0)
s = 11: (0, 16, 22, 28, 11, 4, 22, 8, 9, 46, 20, 0)
s = 12: (0, 16, 27, 15, 6, 6, 26, 8, 5, 29, 18, 0)
s = 13: (0, 14, 22, 26, 7, 5, 20, 6, 7, 20, 17, 0)
s = 14: (0, 17, 30, 14, 12, 6, 24, 9, 7, 35, 26, 0)
s = 15: (0, 18, 23, 25, 10, 7, 31, 7, 12, 26, 33, 0)
s = 16: (0, 20, 19, 15, 7, 8, 41, 8, 9, 34, 23, 0)
s = 17: (0, 25, 20, 26, 10, 5, 17, 5, 7, 35, 23, 0)
s = 18: (0, 28, 34, 16, 6, 5, 21, 6, 11, 23, 18, 0)
s = 19: (0, 14, 23, 21, 8, 6, 30, 7, 7, 27, 19, 0)
s = 20: (0, 20, 16, 17, 7, 5, 28, 7, 8, 46, 31, 0)
s = 21: (0, 13, 29, 15, 8, 8, 41, 9, 8, 37, 30, 0)
s = 22: (0, 19, 17, 13, 5, 4, 26, 10, 7, 29, 21, 0)
s = 23: (0, 23, 19, 21, 8, 3, 46, 8, 11, 28, 24, 0)
s = 24: (0, 19, 23, 12, 13, 7, 36, 5, 8, 23, 21, 0)
s = 25: (0, 14, 24, 24, 13, 4, 20, 9, 8, 36, 24, 0)
s = 26: (0, 22, 23, 21, 9, 7, 44, 9, 6, 24, 27, 0)
s = 27: (0, 19, 48, 14, 9, 6, 44, 6, 5, 26, 16, 0)
s = 28: (0, 19, 25, 17, 6, 6, 32, 6, 9, 26, 31, 0)
s = 29: (0, 29, 41, 30, 5, 4, 40, 7, 5, 23, 19, 0)
s = 30: (0, 28, 41, 17, 6, 5, 22, 5, 5, 31, 33, 0)
s = 31: (0, 14, 46, 19, 8, 4, 27, 8, 12, 21, 15, 0)
s = 32: (0, 23, 36, 21, 9, 4, 32, 7, 5, 37, 21, 0)
s = 33: (0, 15, 31, 13, 6, 7, 35, 6, 9, 31, 19, 0)
s = 34: (0, 16, 21, 18, 7, 4, 29, 9, 11, 36, 20, 0)
s = 35: (0, 22, 17, 23, 9, 4, 25, 7, 11, 26, 18, 0)
s = 36: (0, 17, 33, 21, 5, 5, 44, 6, 7, 23, 22, 0)
s = 37: (0, 32, 40, 16, 7, 6, 21, 9, 6, 47, 21, 0)
s = 38: (0, 18, 43, 17, 8, 4, 31, 5, 12, 20, 21, 0)
s = 39: (0, 21, 35, 19, 11, 9, 28, 4, 9, 24, 13, 0)
s = 40: (0, 19, 18, 29, 10, 4, 30, 9, 9, 23, 11, 0)
s = 41: (0, 20, 19, 19, 6, 7, 30, 6, 7, 22, 17, 0)
s = 42: (0, 18, 19, 23, 7, 6, 29, 5, 11, 26, 22, 0)
s = 43: (0, 30, 34, 14, 6, 4, 49, 5, 5, 33, 23, 0)
s = 44: (0, 24, 33, 31, 7, 4, 25, 4, 8, 40, 25, 0)
s = 45: (0, 32, 19, 18, 10, 5, 31, 12, 11, 44, 24, 0)
s = 46: (0, 29, 32, 26, 10, 6, 36, 8, 7, 50, 35, 0)
s = 47: (0, 20, 30, 20, 6, 5, 22, 7, 11, 41, 18, 0)
s = 48: (0, 13, 26, 18, 11, 4, 33, 11, 9, 37, 17, 0)
s = 49: (0, 17, 38, 22, 8, 7, 46, 11, 15, 21, 15, 0)
s = 50: (0, 15, 33, 18, 5, 4, 27, 6, 10, 22, 28, 0)
s = 51: (0, 20, 25, 25, 9, 3, 32, 10, 11, 46, 15, 0)
s = 52: (0, 17, 22, 13, 5, 7, 20, 8, 10, 31, 22, 0)
s = 53: (0, 27, 26, 14, 7, 5, 33, 10, 7, 25, 13, 0)
s = 54: (0, 14, 25, 20, 8, 4, 44, 8, 9, 38, 16, 0)
s = 55: (0, 19, 29, 30, 8, 9, 41, 7, 7, 26, 30, 0)
s = 56: (0, 15, 28, 18, 7, 6, 46, 5, 8, 42, 14, 0)
s = 57: (0, 17, 29, 28, 5, 7, 25, 12, 8, 55, 18, 0)
s = 58: (0, 28, 25, 14, 7, 5, 23, 9, 6, 34, 30, 0)
s = 59: (0, 20, 31, 12, 8, 5, 29, 9, 9, 23, 18, 0)
s = 60: (0, 16, 17, 20, 6, 4, 25, 6, 11, 34, 24, 0)
s = 61: (0, 25, 32, 20, 6, 4, 21, 8, 7, 31, 23, 0)
s = 62: (0, 20, 17, 16, 6, 4, 39, 7, 14, 24, 27, 0)
s = 63: (0, 15, 25, 23, 11, 8, 34, 11, 7, 36, 24, 0)
s = 64: (0, 17, 33, 18, 6, 5, 38, 7, 11, 24, 19, 0)
s = 65: (0, 16, 19, 22, 8, 9, 31, 5, 12, 35, 29, 0)
s = 66: (0, 20, 34, 19, 5, 4, 24, 8, 8, 37, 17, 0)
s = 67: (0, 18, 22, 13, 8, 5, 43, 8, 9, 43, 21, 0)
s = 68: (0, 17, 21, 17, 5, 5, 24, 5, 9, 33, 20, 0)
s = 69: (0, 17, 18, 29, 5, 3, 46, 9, 7, 37, 17, 0)
s = 70: (0, 23, 27, 25, 8, 5, 35, 10, 13, 22, 16, 0)
s = 71: (0, 29, 24, 23, 10, 4, 38, 8, 5, 30, 29, 0)
s = 72: (0, 21, 34, 13, 6, 4, 19, 8, 7, 33, 22, 0)
s = 73: (0, 23, 45, 22, 14, 6, 41, 8, 7, 42, 17, 0)
s = 74: (0, 25, 36, 24, 6, 4, 35, 7, 6, 33, 13, 0)
s = 75: (0, 26, 36, 16, 9, 4, 26, 6, 6, 26, 11, 0)
s = 76: (0, 16, 29, 14, 14, 6, 25, 8, 10, 22, 12, 0)
s = 77: (0, 17, 35, 27, 7, 5, 22, 6, 9, 36, 24, 0)
s = 78: (0, 20, 38, 23, 7, 4, 42, 5, 14, 25, 21, 0)
s = 79: (0, 21, 18, 21, 9, 4, 20, 6, 5, 35, 30, 0)
s = 80: (0, 23, 26, 20, 10, 5, 34, 11, 7, 18, 24, 0)
s = 81: (0, 25, 44, 20, 9, 8, 34, 9, 11, 37, 36, 0)
s = 82: (0, 23, 33, 12, 5, 5, 26, 6, 10, 22, 17, 0)
s = 83: (0, 32, 30, 26, 10, 4, 43, 9, 10, 37, 20, 0)
s = 84: (0, 20, 26, 23, 14, 6, 33, 6, 6, 33, 21, 0)
s = 85: (0, 35, 19, 20, 13, 6, 20, 12, 10, 53, 25, 0)
s = 86: (0, 34, 37, 28, 8, 8, 23, 4, 9, 26, 18, 0)
s = 87: (0, 27, 41, 20, 8, 4, 60, 12, 8, 44, 18, 0)
s = 88: (0, 17, 28, 12, 7, 6, 29, 6, 8, 26, 16, 0)
s = 89: (0, 19, 34, 23, 9, 6, 35, 7, 8, 26, 12, 0)
s = 90: (0, 29, 41, 20, 10, 4, 31, 9, 8, 24, 21, 0)
s = 91: (0, 13, 32, 26, 7, 5, 45, 7, 6, 37, 27, 0)
s = 92: (0, 23, 18, 16, 9, 9, 25, 7, 11, 32, 24, 0)
s = 93: (0, 18, 16, 18, 8, 6, 21, 4, 8, 44, 30, 0)
s = 94: (0, 17, 18, 11, 7, 6, 24, 7, 7, 35, 19, 0)
s = 95: (0, 27, 16, 24, 8, 7, 31, 5, 7, 58, 14, 0)
s = 96: (0, 26, 22, 29, 10, 7, 35, 12, 12, 40, 18, 0)
s = 97: (0, 13, 38, 22, 6, 8, 58, 8, 8, 38, 17, 0)
s = 98: (0, 12, 39, 16, 7, 8, 21, 4, 10, 31, 28, 0)
s = 99: (0, 20, 18, 17, 9, 6, 28, 5, 6, 23, 24, 0)
s = 100: (0, 17, 28, 13, 6, 8, 31, 6, 11, 27, 21, 0)
s = 101: (0, 13, 29, 21, 15, 5, 39, 10, 8, 37, 18, 0)
s = 102: (0, 14, 26, 17, 11, 7, 23, 9, 8, 30, 16, 0)
s = 103: (0, 13, 34, 24, 8, 4, 33, 5, 9, 56, 20, 0)
s = 104: (0, 16, 42, 16, 9, 6, 38, 8, 5, 33, 36, 0)
s = 105: (0, 14, 43, 26, 9, 4, 29, 6, 9, 31, 21, 0)
s = 106: (0, 16, 40, 12, 7, 3, 58, 7, 10, 30, 19, 0)
s = 107: (0, 32, 19, 16, 8, 4, 28, 7, 10, 20, 18, 0)
s = 108: (0, 33, 21, 17, 10, 6, 22, 6, 9, 31, 22, 0)
s = 109: (0, 21, 17, 20, 11, 6, 24, 5, 9, 48, 21, 0)
s = 110: (0, 24, 27, 22, 6, 6, 19, 6, 9, 28, 22, 0)
s = 111: (0, 24, 32, 20, 6, 3, 34, 6, 5, 31, 14, 0)
s = 112: (0, 26, 20, 16, 10, 6, 28, 7, 12, 42, 21, 0)
s = 113: (0, 31, 22, 17, 8, 4, 26, 9, 8, 21, 18, 0)
s = 114: (0, 15, 21, 17, 8, 6, 22, 8, 6, 43, 25, 0)
s = 115: (0, 13, 37, 21, 8, 5, 24, 11, 13, 22, 18, 0)
s = 116: (0, 12, 25, 17, 9, 5, 27, 7, 9, 26, 28, 0)
s = 117: (0, 28, 22, 22, 6, 5, 22, 7, 5, 32, 19, 0)
s = 118: (0, 24, 28, 18, 9, 7, 43, 7, 13, 37, 26, 0)
s = 119: (0, 25, 36, 23, 9, 7, 23, 5, 10, 21, 19, 0)
s = 120: (0, 14, 32, 26, 5, 5, 40, 9, 6, 27, 18, 0)
s = 121: (0, 21, 34, 23, 9, 5, 55, 7, 9, 22, 28, 0)
s = 122: (0, 18, 23, 28, 6, 5, 42, 7, 8, 26, 30, 0)
s = 123: (0, 26, 23, 22, 10, 7, 27, 8, 11, 26, 19, 0)
s = 124: (0, 15, 34, 21, 10, 6, 33, 9, 6, 24, 26, 0)
s = 125: (0, 31, 19, 23, 8, 4, 27, 7, 8, 30, 17, 0)
s = 126: (0, 16, 40, 24, 8, 7, 23, 5, 7, 46, 17, 0)
s = 127: (0, 17, 25, 18, 6, 6, 33, 9, 9, 23, 16, 0)
s = 128: (0, 20, 20, 31, 7, 4, 26, 6, 10, 44, 11, 0)
s = 129: (0, 15, 18, 24, 8, 9, 34, 7, 10, 46, 22, 0)
s = 130: (0, 23, 40, 19, 7, 6, 33, 13, 9, 25, 17, 0)
s = 131: (0, 13, 28, 14, 5, 5, 29, 9, 6, 48, 22, 0)
s = 132: (0, 27, 42, 15, 9, 4, 33, 6, 6, 20, 14, 0)
s = 133: (0, 14, 47, 19, 11, 5, 30, 8, 11, 28, 28, 0)
s = 134: (0, 24, 15, 15, 7, 6, 26, 8, 9, 19, 16, 0)
s = 135: (0, 22, 32, 21, 12, 4, 33, 9, 8, 26, 12, 0)
s = 136: (0, 28, 19, 24, 8, 5, 31, 5, 6, 23, 16, 0)
s = 137: (0, 14, 20, 21, 7, 5, 45, 8, 7, 26, 27, 0)
s = 138: (0, 11, 27, 16, 11, 6, 45, 5, 8, 26, 22, 0)
s = 139: (0, 12, 18, 26, 9, 7, 33, 6, 6, 41, 21, 0)
s = 140: (0, 17, 47, 23, 10, 5, 33, 5, 6, 31, 20, 0)
s = 141: (0, 36, 24, 26, 7, 4, 21, 7, 6, 44, 35, 0)
s = 142: (0, 31, 16, 22, 9, 5, 25, 7, 6, 40, 21, 0)
s = 143: (0, 14, 23, 22, 8, 6, 52, 8, 7, 21, 28, 0)
s = 144: (0, 24, 40, 20, 17, 6, 23, 9, 6, 35, 21, 0)
s = 145: (0, 18, 22, 21, 6, 7, 27, 10, 9, 21, 16, 0)
s = 146: (0, 16, 27, 15, 7, 5, 39, 5, 5, 24, 16, 0)
s = 147: (0, 21, 27, 14, 10, 7, 32, 7, 5, 32, 24, 0)
s = 148: (0, 22, 22, 18, 10, 3, 29, 8, 9, 35, 22, 0)
s = 149: (0, 15, 31, 15, 8, 6, 30, 9, 11, 25, 25, 0)
s = 150: (0, 26, 39, 27, 8, 4, 26, 8, 7, 21, 18, 0)
s = 151: (0, 27, 32, 11, 5, 4, 46, 10, 6, 33, 17, 0)
s = 152: (0, 17, 30, 19, 10, 5, 28, 7, 6, 19, 13, 0)
s = 153: (0, 15, 28, 15, 13, 4, 30, 6, 5, 42, 20, 0)
s = 154: (0, 14, 22, 23, 9, 5, 52, 7, 5, 51, 24, 0)
s = 155: (0, 18, 28, 14, 7, 4, 31, 6, 12, 28, 18, 0)
s = 156: (0, 16, 23, 25, 7, 6, 33, 5, 5, 39, 18, 0)
s = 157: (0, 20, 21, 24, 8, 6, 22, 9, 10, 24, 13, 0)
s = 158: (0, 23, 33, 31, 5, 5, 30, 7, 8, 35, 16, 0)
s = 159: (0, 19, 24, 13, 7, 5, 25, 5, 13, 41, 25, 0)
s = 160: (0, 28, 36, 16, 13, 6, 28, 10, 7, 47, 18, 0)
s = 161: (0, 33, 33, 14, 10, 5, 29, 7, 15, 22, 28, 0)
s = 162: (0, 23, 25, 14, 8, 6, 25, 7, 8, 24, 15, 0)
s = 163: (0, 18, 19, 27, 9, 4, 28, 7, 8, 34, 15, 0)
s = 164: (0, 30, 19, 26, 10, 6, 26, 6, 6, 35, 19, 0)
s = 165: (0, 28, 33, 23, 8, 4, 29, 7, 8, 34, 17, 0)
s = 166: (0, 22, 25, 17, 7, 7, 42, 5, 8, 34, 22, 0)
s = 167: (0, 21, 41, 26, 5, 3, 36, 8, 15, 21, 20, 0)
s = 168: (0, 13, 37, 19, 8, 6, 32, 6, 6, 36, 30, 0)
s = 169: (0, 15, 30, 23, 10, 4, 26, 5, 7, 40, 15, 0)
s = 170: (0, 23, 23, 16, 6, 4, 36, 7, 10, 32, 15, 0)
s = 171: (0, 21, 34, 14, 8, 7, 29, 5, 7, 33, 14, 0)
s = 172: (0, 12, 20, 19, 9, 7, 35, 5, 10, 41, 22, 0)
s = 173: (0, 30, 40, 17, 7, 6, 39, 6, 7, 28, 16, 0)
s = 174: (0, 13, 59, 18, 13, 9, 22, 7, 7, 18, 17, 0)
s = 175: (0, 23, 25, 13, 8, 9, 46, 4, 11, 35, 20, 0)
s = 176: (0, 27, 21, 23, 10, 4, 44, 7, 10, 36, 21, 0)
s = 177: (0, 22, 26, 20, 8, 4, 45, 6, 7, 20, 26, 0)
s = 178: (0, 15, 18, 25, 10, 6, 35, 10, 6, 20, 26, 0)
s = 179: (0, 22, 19, 15, 6, 4, 34, 10, 10, 24, 11, 0)
s = 180: (0, 17, 28, 13, 8, 10, 40, 6, 6, 29, 16, 0)
s = 181: (0, 23, 41, 15, 6, 4, 24, 7, 6, 42, 31, 0)
s = 182: (0, 25, 15, 20, 5, 4, 20, 6, 7, 30, 25, 0)
s = 183: (0, 12, 19, 20, 5, 8, 26, 7, 10, 46, 19, 0)
s = 184: (0, 30, 25, 26, 6, 5, 44, 5, 13, 20, 16, 0)
s = 185: (0, 26, 30, 26, 8, 8, 34, 6, 5, 25, 13, 0)
s = 186: (0, 19, 23, 26, 12, 4, 30, 6, 10, 34, 20, 0)
s = 187: (0, 21, 33, 26, 7, 5, 44, 8, 7, 34, 32, 0)
s = 188: (0, 11, 19, 17, 6, 7, 24, 8, 7, 40, 14, 0)
s = 189: (0, 13, 44, 21, 9, 9, 35, 6, 5, 27, 16, 0)
s = 190: (0, 14, 28, 20, 9, 6, 38, 10, 7, 32, 30, 0)
s = 191: (0, 17, 36, 20, 6, 9, 56, 5, 5, 22, 27, 0)
s = 192: (0, 15, 17, 12, 7, 5, 19, 11, 11, 28, 31, 0)
s = 193: (0, 32, 39, 17, 10, 5, 24, 9, 6, 58, 19, 0)
s = 194: (0, 23, 29, 19, 8, 6, 39, 7, 7, 38, 30, 0)
s = 195: (0, 15, 32, 19, 11, 6, 25, 8, 9, 39, 11, 0)
s = 196: (0, 18, 22, 19, 9, 5, 25, 7, 5, 41, 19, 0)
s = 197: (0, 15, 23, 13, 10, 5, 23, 7, 8, 41, 23, 0)
s = 198: (0, 21, 24, 13, 8, 6, 26, 6, 11, 26, 18, 0)
s = 199: (0, 20, 21, 20, 8, 7, 20, 9, 12, 19, 28, 0)
s = 200: (0, 24, 24, 19, 6, 6, 24, 7, 11, 34, 18, 0)
------------------------------------------------------------------------
RESOURCE k = 3
s = 1: (0, 21, 15, 8, 11, 6, 27, 6, 6, 12, 49, 0)
s = 2: (0, 42, 19, 12, 6, 16, 35, 6, 5, 20, 38, 0)
s = 3: (0, 33, 31, 13, 10, 10, 19, 9, 8, 19, 32, 0)
s = 4: (0, 20, 20, 10, 7, 10, 41, 10, 7, 18, 24, 0)
s = 5: (0, 20, 14, 7, 9, 7, 32, 6, 8, 12, 55, 0)
s = 6: (0, 48, 29, 7, 8, 6, 26, 5, 10, 20, 60, 0)
s = 7: (0, 32, 30, 10, 6, 9, 39, 7, 11, 19, 23, 0)
s = 8: (0, 25, 28, 8, 6, 6, 27, 10, 7, 17, 36, 0)
s = 9: (0, 21, 25, 9, 7, 14, 35, 5, 7, 17, 34, 0)
s = 10: (0, 32, 16, 5, 5, 12, 41, 14, 6, 14, 27, 0)
s = 11: (0, 25, 19, 11, 9, 6, 20, 8, 8, 23, 35, 0)
s = 12: (0, 25, 23, 6, 5, 11, 23, 8, 5, 15, 32, 0)
s = 13: (0, 22, 19, 11, 7, 8, 18, 6, 6, 10, 31, 0)
s = 14: (0, 27, 25, 6, 10, 10, 21, 9, 7, 18, 47, 0)
s = 15: (0, 28, 20, 10, 9, 12, 27, 7, 10, 13, 59, 0)
s = 16: (0, 31, 16, 6, 6, 14, 36, 8, 8, 17, 41, 0)
s = 17: (0, 39, 17, 11, 9, 9, 15, 5, 6, 18, 41, 0)
s = 18: (0, 44, 29, 7, 5, 9, 18, 6, 10, 12, 32, 0)
s = 19: (0, 22, 20, 9, 7, 10, 26, 7, 6, 14, 34, 0)
s = 20: (0, 32, 14, 7, 6, 8, 25, 7, 7, 23, 56, 0)
s = 21: (0, 21, 25, 6, 7, 15, 36, 9, 7, 19, 53, 0)
s = 22: (0, 30, 14, 6, 5, 7, 23, 10, 6, 15, 37, 0)
s = 23: (0, 36, 16, 9, 7, 5, 41, 8, 9, 14, 43, 0)
s = 24: (0, 30, 20, 5, 12, 12, 31, 5, 7, 12, 37, 0)
s = 25: (0, 22, 21, 10, 12, 7, 17, 9, 7, 18, 43, 0)
s = 26: (0, 35, 20, 9, 8, 12, 39, 9, 6, 12, 48, 0)
s = 27: (0, 30, 41, 6, 8, 10, 39, 6, 5, 13, 28, 0)
s = 28: (0, 30, 21, 7, 5, 11, 28, 6, 8, 13, 55, 0)
s = 29: (0, 46, 35, 12, 4, 7, 35, 7, 5, 12, 34, 0)
s = 30: (0, 45, 35, 7, 6, 8, 19, 5, 4, 16, 59, 0)
s = 31: (0, 23, 40, 8, 7, 7, 24, 8, 11, 11, 27, 0)
s = 32: (0, 36, 31, 9, 8, 7, 28, 7, 5, 19, 37, 0)
s = 33: (0, 23, 26, 5, 6, 12, 31, 6, 8, 16, 34, 0)
s = 34: (0, 25, 18, 7, 6, 8, 25, 9, 10, 18, 35, 0)
s = 35: (0, 35, 14, 9, 8, 7, 22, 7, 9, 13, 33, 0)
s = 36: (0, 28, 28, 9, 5, 9, 39, 6, 6, 12, 40, 0)
s = 37: (0, 51, 34, 7, 7, 11, 19, 9, 5, 24, 37, 0)
s = 38: (0, 28, 37, 7, 7, 7, 27, 5, 10, 10, 37, 0)
s = 39: (0, 33, 30, 8, 9, 16, 24, 4, 8, 12, 23, 0)
s = 40: (0, 30, 15, 12, 9, 7, 26, 9, 8, 12, 20, 0)
s = 41: (0, 32, 16, 8, 6, 12, 27, 6, 7, 11, 30, 0)
s = 42: (0, 29, 17, 10, 6, 10, 25, 5, 9, 13, 40, 0)
s = 43: (0, 48, 29, 6, 5, 7, 43, 5, 5, 17, 40, 0)
s = 44: (0, 38, 29, 13, 7, 6, 22, 4, 7, 20, 44, 0)
s = 45: (0, 51, 17, 7, 9, 9, 27, 12, 9, 22, 44, 0)
s = 46: (0, 45, 28, 11, 9, 10, 31, 8, 6, 25, 62, 0)
s = 47: (0, 32, 26, 8, 6, 8, 19, 7, 10, 21, 32, 0)
s = 48: (0, 20, 22, 8, 9, 7, 29, 11, 8, 19, 30, 0)
s = 49: (0, 27, 32, 9, 7, 12, 40, 11, 13, 11, 26, 0)
s = 50: (0, 24, 28, 7, 4, 7, 24, 6, 9, 11, 50, 0)
s = 51: (0, 32, 22, 10, 8, 6, 28, 10, 9, 23, 26, 0)
s = 52: (0, 27, 19, 5, 5, 12, 18, 8, 8, 16, 40, 0)
s = 53: (0, 42, 22, 6, 6, 9, 29, 10, 6, 13, 24, 0)
s = 54: (0, 22, 22, 8, 7, 7, 39, 8, 8, 19, 29, 0)
s = 55: (0, 30, 25, 12, 7, 15, 36, 7, 6, 13, 53, 0)
s = 56: (0, 23, 24, 7, 6, 11, 40, 5, 7, 21, 25, 0)
s = 57: (0, 26, 25, 11, 5, 13, 22, 12, 7, 28, 32, 0)
s = 58: (0, 44, 22, 6, 7, 9, 20, 9, 5, 17, 54, 0)
s = 59: (0, 31, 26, 5, 7, 8, 26, 9, 8, 12, 32, 0)
s = 60: (0, 26, 14, 8, 6, 8, 22, 6, 10, 17, 43, 0)
s = 61: (0, 40, 27, 8, 5, 7, 19, 8, 6, 16, 40, 0)
s = 62: (0, 31, 15, 7, 5, 7, 34, 7, 13, 12, 47, 0)
s = 63: (0, 23, 22, 10, 9, 14, 30, 11, 6, 18, 43, 0)
s = 64: (0, 27, 28, 8, 5, 9, 33, 7, 10, 12, 34, 0)
s = 65: (0, 25, 17, 9, 7, 16, 27, 5, 11, 18, 52, 0)
s = 66: (0, 31, 29, 8, 5, 6, 21, 8, 7, 19, 31, 0)
s = 67: (0, 28, 19, 5, 7, 9, 37, 8, 8, 22, 37, 0)
s = 68: (0, 27, 18, 7, 4, 8, 21, 5, 8, 17, 35, 0)
s = 69: (0, 27, 15, 12, 5, 6, 41, 9, 6, 19, 31, 0)
s = 70: (0, 36, 23, 10, 7, 8, 31, 10, 12, 11, 28, 0)
s = 71: (0, 47, 21, 9, 9, 7, 33, 8, 4, 15, 51, 0)
s = 72: (0, 34, 29, 6, 5, 7, 16, 8, 6, 17, 40, 0)
s = 73: (0, 37, 39, 9, 12, 10, 36, 8, 6, 21, 30, 0)
s = 74: (0, 39, 31, 10, 5, 8, 30, 7, 5, 17, 22, 0)
s = 75: (0, 41, 31, 7, 8, 7, 23, 6, 5, 13, 20, 0)
s = 76: (0, 25, 25, 6, 12, 11, 22, 8, 9, 11, 21, 0)
s = 77: (0, 26, 30, 11, 6, 8, 19, 6, 8, 18, 42, 0)
s = 78: (0, 32, 33, 10, 6, 7, 37, 5, 12, 13, 38, 0)
s = 79: (0, 34, 15, 9, 8, 8, 18, 6, 4, 18, 54, 0)
s = 80: (0, 37, 22, 8, 8, 9, 30, 11, 6, 9, 42, 0)
s = 81: (0, 40, 37, 8, 8, 13, 30, 9, 9, 19, 64, 0)
s = 82: (0, 36, 29, 5, 5, 8, 23, 6, 9, 11, 31, 0)
s = 83: (0, 52, 26, 11, 9, 6, 38, 9, 9, 19, 35, 0)
s = 84: (0, 32, 23, 10, 12, 11, 29, 6, 5, 17, 37, 0)
s = 85: (0, 55, 17, 8, 12, 10, 17, 12, 8, 27, 45, 0)
s = 86: (0, 54, 32, 11, 7, 14, 20, 4, 8, 13, 31, 0)
s = 87: (0, 43, 35, 8, 7, 6, 52, 12, 7, 22, 32, 0)
s = 88: (0, 27, 24, 5, 6, 11, 25, 6, 7, 13, 28, 0)
s = 89: (0, 30, 29, 9, 8, 11, 31, 7, 7, 13, 22, 0)
s = 90: (0, 47, 35, 8, 9, 6, 27, 9, 7, 12, 38, 0)
s = 91: (0, 20, 28, 11, 6, 9, 39, 7, 5, 19, 49, 0)
s = 92: (0, 36, 16, 7, 8, 15, 22, 7, 9, 16, 43, 0)
s = 93: (0, 28, 14, 7, 7, 11, 18, 4, 7, 22, 54, 0)
s = 94: (0, 27, 15, 5, 6, 10, 21, 7, 6, 18, 33, 0)
s = 95: (0, 43, 13, 10, 7, 13, 27, 5, 6, 29, 24, 0)
s = 96: (0, 42, 19, 12, 8, 12, 31, 12, 10, 20, 31, 0)
s = 97: (0, 20, 33, 9, 5, 14, 50, 8, 7, 19, 30, 0)
s = 98: (0, 19, 34, 7, 6, 15, 18, 4, 9, 16, 51, 0)
s = 99: (0, 32, 16, 7, 8, 10, 25, 5, 6, 12, 43, 0)
s = 100: (0, 27, 24, 6, 5, 14, 27, 6, 9, 14, 38, 0)
s = 101: (0, 21, 25, 9, 13, 9, 35, 10, 7, 19, 31, 0)
s = 102: (0, 22, 22, 7, 10, 12, 21, 9, 7, 15, 28, 0)
s = 103: (0, 21, 29, 10, 7, 7, 29, 5, 8, 28, 36, 0)
s = 104: (0, 25, 36, 7, 8, 11, 34, 8, 5, 17, 65, 0)
s = 105: (0, 23, 37, 11, 8, 6, 26, 6, 8, 16, 37, 0)
s = 106: (0, 25, 35, 5, 6, 5, 51, 7, 9, 15, 33, 0)
s = 107: (0, 50, 17, 7, 7, 7, 25, 7, 9, 10, 32, 0)
s = 108: (0, 52, 18, 7, 9, 10, 20, 6, 8, 16, 40, 0)
s = 109: (0, 34, 15, 8, 9, 11, 21, 5, 8, 24, 38, 0)
s = 110: (0, 37, 24, 9, 5, 10, 16, 6, 8, 14, 39, 0)
s = 111: (0, 39, 28, 8, 5, 6, 30, 6, 4, 16, 24, 0)
s = 112: (0, 41, 17, 7, 9, 11, 24, 7, 11, 21, 37, 0)
s = 113: (0, 49, 19, 7, 7, 7, 23, 9, 7, 11, 31, 0)
s = 114: (0, 24, 18, 7, 7, 10, 19, 8, 6, 22, 45, 0)
s = 115: (0, 21, 32, 9, 7, 8, 21, 11, 11, 11, 32, 0)
s = 116: (0, 20, 22, 7, 8, 9, 24, 7, 8, 13, 49, 0)
s = 117: (0, 45, 19, 9, 6, 9, 20, 7, 5, 16, 34, 0)
s = 118: (0, 38, 24, 8, 8, 12, 38, 7, 11, 19, 47, 0)
s = 119: (0, 40, 31, 9, 8, 12, 20, 5, 9, 11, 34, 0)
s = 120: (0, 23, 28, 11, 5, 9, 35, 9, 6, 14, 32, 0)
s = 121: (0, 34, 29, 9, 8, 8, 48, 7, 8, 11, 50, 0)
s = 122: (0, 29, 20, 11, 5, 8, 37, 7, 7, 13, 54, 0)
s = 123: (0, 42, 20, 9, 9, 13, 24, 8, 10, 13, 33, 0)
s = 124: (0, 24, 29, 9, 9, 11, 29, 9, 6, 12, 47, 0)
s = 125: (0, 49, 16, 10, 7, 7, 24, 7, 7, 15, 31, 0)
s = 126: (0, 25, 35, 10, 7, 13, 20, 5, 7, 23, 30, 0)
s = 127: (0, 27, 22, 7, 5, 11, 29, 9, 8, 12, 29, 0)
s = 128: (0, 32, 18, 13, 6, 7, 22, 6, 9, 22, 19, 0)
s = 129: (0, 24, 16, 10, 7, 16, 30, 7, 9, 23, 39, 0)
s = 130: (0, 36, 35, 8, 6, 11, 29, 13, 8, 13, 31, 0)
s = 131: (0, 21, 24, 6, 4, 8, 25, 9, 6, 24, 39, 0)
s = 132: (0, 43, 36, 6, 8, 8, 29, 6, 5, 10, 24, 0)
s = 133: (0, 22, 41, 8, 10, 9, 26, 8, 9, 14, 51, 0)
s = 134: (0, 38, 13, 6, 6, 11, 22, 8, 8, 10, 29, 0)
s = 135: (0, 35, 28, 9, 10, 7, 29, 9, 7, 13, 21, 0)
s = 136: (0, 44, 16, 10, 7, 8, 27, 5, 5, 12, 28, 0)
s = 137: (0, 23, 17, 9, 6, 8, 40, 8, 6, 13, 49, 0)
s = 138: (0, 18, 23, 7, 10, 11, 39, 5, 7, 13, 40, 0)
s = 139: (0, 19, 15, 11, 8, 11, 29, 6, 5, 21, 37, 0)
s = 140: (0, 27, 40, 10, 9, 8, 29, 5, 6, 16, 35, 0)
s = 141: (0, 57, 21, 11, 6, 7, 19, 7, 5, 22, 63, 0)
s = 142: (0, 49, 14, 9, 8, 9, 22, 7, 6, 20, 37, 0)
s = 143: (0, 22, 20, 9, 7, 10, 45, 8, 7, 11, 49, 0)
s = 144: (0, 38, 35, 8, 15, 10, 20, 9, 5, 18, 37, 0)
s = 145: (0, 29, 19, 9, 6, 11, 23, 10, 8, 11, 29, 0)
s = 146: (0, 26, 23, 6, 6, 9, 34, 5, 5, 12, 28, 0)
s = 147: (0, 33, 23, 6, 9, 12, 28, 7, 4, 16, 43, 0)
s = 148: (0, 35, 19, 8, 9, 5, 25, 8, 8, 18, 39, 0)
s = 149: (0, 23, 26, 6, 7, 11, 27, 9, 10, 13, 45, 0)
s = 150: (0, 41, 33, 11, 7, 7, 23, 8, 6, 11, 32, 0)
s = 151: (0, 43, 28, 5, 4, 7, 40, 10, 5, 17, 29, 0)
s = 152: (0, 27, 26, 8, 9, 9, 25, 7, 6, 10, 23, 0)
s = 153: (0, 24, 24, 6, 11, 7, 26, 6, 4, 21, 36, 0)
s = 154: (0, 22, 19, 9, 8, 9, 45, 7, 5, 26, 43, 0)
s = 155: (0, 29, 24, 6, 6, 7, 27, 6, 11, 14, 32, 0)
s = 156: (0, 26, 20, 10, 6, 11, 29, 5, 5, 20, 32, 0)
s = 157: (0, 32, 18, 10, 7, 11, 20, 9, 9, 12, 24, 0)
s = 158: (0, 36, 28, 13, 5, 8, 26, 7, 7, 18, 28, 0)
s = 159: (0, 30, 20, 5, 6, 8, 22, 5, 11, 21, 44, 0)
s = 160: (0, 45, 31, 7, 11, 11, 25, 10, 6, 24, 32, 0)
s = 161: (0, 52, 28, 6, 9, 9, 25, 7, 13, 11, 50, 0)
s = 162: (0, 37, 22, 6, 7, 11, 22, 7, 7, 12, 27, 0)
s = 163: (0, 29, 16, 11, 8, 7, 25, 7, 7, 17, 27, 0)
s = 164: (0, 47, 16, 11, 9, 10, 23, 6, 5, 18, 34, 0)
s = 165: (0, 45, 28, 9, 7, 7, 25, 7, 7, 17, 31, 0)
s = 166: (0, 35, 22, 7, 6, 12, 37, 5, 7, 17, 38, 0)
s = 167: (0, 33, 35, 11, 5, 6, 32, 8, 13, 11, 35, 0)
s = 168: (0, 20, 32, 8, 7, 11, 28, 6, 6, 18, 53, 0)
s = 169: (0, 23, 26, 9, 9, 7, 23, 5, 6, 20, 27, 0)
s = 170: (0, 36, 20, 7, 6, 6, 32, 7, 8, 16, 27, 0)
s = 171: (0, 33, 29, 6, 7, 12, 26, 5, 6, 17, 25, 0)
s = 172: (0, 19, 17, 8, 8, 12, 30, 5, 9, 21, 39, 0)
s = 173: (0, 48, 34, 7, 6, 10, 34, 6, 6, 14, 29, 0)
s = 174: (0, 20, 51, 8, 11, 15, 20, 7, 7, 9, 31, 0)
s = 175: (0, 37, 21, 5, 7, 16, 40, 4, 10, 18, 35, 0)
s = 176: (0, 44, 18, 10, 9, 6, 38, 7, 9, 18, 37, 0)
s = 177: (0, 34, 22, 8, 7, 7, 39, 6, 7, 10, 46, 0)
s = 178: (0, 23, 16, 10, 8, 11, 31, 10, 5, 10, 46, 0)
s = 179: (0, 34, 17, 6, 6, 7, 30, 10, 9, 12, 19, 0)
s = 180: (0, 27, 24, 5, 7, 17, 35, 6, 5, 15, 29, 0)
s = 181: (0, 37, 35, 6, 5, 8, 21, 7, 5, 21, 55, 0)
s = 182: (0, 39, 13, 8, 4, 7, 17, 6, 6, 15, 44, 0)
s = 183: (0, 19, 17, 8, 5, 15, 22, 7, 8, 23, 33, 0)
s = 184: (0, 48, 21, 11, 5, 8, 39, 5, 12, 10, 28, 0)
s = 185: (0, 42, 26, 11, 7, 13, 30, 6, 5, 13, 23, 0)
s = 186: (0, 31, 19, 11, 10, 7, 26, 6, 9, 17, 36, 0)
s = 187: (0, 34, 29, 11, 6, 8, 38, 8, 6, 17, 58, 0)
s = 188: (0, 18, 17, 7, 6, 11, 21, 8, 6, 20, 25, 0)
s = 189: (0, 20, 37, 9, 8, 15, 31, 6, 5, 14, 28, 0)
s = 190: (0, 21, 24, 8, 8, 10, 33, 10, 7, 16, 54, 0)
s = 191: (0, 26, 31, 8, 6, 15, 49, 5, 5, 11, 48, 0)
s = 192: (0, 24, 14, 5, 6, 9, 17, 11, 10, 14, 56, 0)
s = 193: (0, 51, 34, 7, 9, 8, 21, 9, 6, 29, 33, 0)
s = 194: (0, 37, 25, 8, 7, 11, 34, 7, 6, 19, 53, 0)
s = 195: (0, 24, 27, 8, 10, 10, 22, 8, 8, 20, 20, 0)
s = 196: (0, 29, 19, 8, 8, 9, 22, 7, 5, 21, 33, 0)
s = 197: (0, 24, 20, 6, 9, 8, 21, 7, 7, 21, 41, 0)
s = 198: (0, 34, 21, 6, 7, 11, 23, 6, 10, 13, 32, 0)
s = 199: (0, 32, 18, 8, 7, 12, 17, 9, 11, 10, 49, 0)
s = 200: (0, 38, 21, 8, 6, 11, 21, 7, 10, 17, 32, 0)
************************************************************************
ES/LS-VALUES:
jobnr.   ES(i)    LS(i)
------------------------------------------------------------------------
  0        0        0
  1        0       60
  2        0       68
  3        0       59
  4        7       68
  5        7       69
  6        3       63
  7        3       69
  8       10       77
  9        9       71
 10       10       71
 11       17       79
************************************************************************
BIG-M-VALUES:
M1 = 47, M2 = 169
************************************************************************
